100
128
32
32
40
59
28
53
16
27
33
46
3
23
8
13
17
37
32
54
32
59
39
1
52
41
30
35
26
11
50
60
57
13
52
14
44
31
40
19
12
51
10
2
15
45
47
15
26
16
20
24
5
53
3
13
14
61
41
35
26
23
22
14
16
20
40
17
15
38
35
57
31
36
4
15
25
27
1
15
15
1
15
49
29
15
3
34
34
47
16
46
16
33
52
24
34
63
31
39
27
59